reg_CVC4/cvc472.smt2
(set-logic QF_SLIA)
(declare-fun var0 () Int)
(declare-fun var1 () Bool)
(declare-fun var2 () Bool)
(declare-fun var3 () String)
(declare-fun var4 () Int)
(declare-fun var5 () Int)
(declare-fun var6 () String)
(declare-fun var7 () String)
(declare-fun var8 () String)
(declare-fun var9 () String)
(declare-fun var10 () String)
(declare-fun var11 () String)
(declare-fun var12 () String)
(declare-fun var13 () String)
(declare-fun var14 () String)
(declare-fun var15 () Int)
(declare-fun var16 () String)
(declare-fun var17 () Int)
(declare-fun var18 () Int)
(declare-fun var19 () Int)
(declare-fun var20 () String)
(assert (and (< var0 80) (or var1 var2)))
(assert (str.in.re (str.substr (str.substr var3 var4 var5) (str.to.int (str.replace var6 var7 var8)) (str.len (str.replace var6 var9 var10))) (re.+ (re.* re.allchar))))
(assert (not (or (str.suffixof var11 var12) (< (str.indexof var13 var14 var15) (str.len var12)))))
(assert (str.suffixof var11 var3))
(assert (>= (str.to.int (str.substr var16 105 var17)) (str.indexof var10 var8 var18)))
(assert (str.suffixof (str.at var16 var19) (str.substr var20 var15 var0)))
(assert (str.suffixof (str.substr var7 var4 var4) (str.at (str.substr "y-YJ$D.ce1'6rdfiaxG=cMx;""f<5dnH==TDSRib9CyXRT{.nZKYPRw^KdkVJ^7eSRl?J6;y}u;by""OW/~%L<@K;UHwTk7/=@3e!MpCsM/8C-wIl7`i5""'CSh>tgE`SC2&Uk,ODgS1SzV0R$5XU*+lz?)(0=?xme6>M(NV!>LGv^wg\\(t'o[*P/C(Sx{F}{Uj$taPG\\p4E&d9&Vb]u1q*AH\\&h+G67~S24o,br/^8H_>Kc.fe4Z)[Sc[7J1,8EXl_qb(X5>Pcq|r<r}<0hGj+A58Jc$]4t,4v\\QK+<KcL5~#x:VtFc^U@1l[Ra!Wu,LFI@TQ#ZJa!?GJ]hy9~BG`F-@.WgzP<H[vtt&Mr;Fj" var17 var17) (str.indexof var20 var12 var17))))
(assert (str.suffixof var10 var9))
(assert (str.suffixof (str.replace var12 var14 var11) (str.++ var9 var9)))
(assert (> var5 var4))
(assert (str.suffixof var7 var3))
(assert (str.prefixof (str.at (str.replace var14 var10 var7) (str.len "6A-fTO.|7fBtz?I+bKg6opSC`YX'2~(?2.1)Aa^}@Z/r<y{`QTv@>ZLqDRp6&yzin6SL`>7fMlBD&?z`fp;Vp]4WQb;\\V:l~wo;Y$f$4ybyR#2MUN)So!U[`C|wnVBI7a[,)'./505d>{v9NMF+-l#T5\\r2CJ0E,Lwe""Ph""7rY5N0[xR%P?~Zl6{:m/%#TB3_l\\'Oy22@8OC?SDH~/:Gqja@Jz03b{8]7TvXtPfy|gquKA&E,#{7.AA}U.I.Uj}[qhs;5O/<i,pcBNc'DqDb5qWt=}a[Cz~tN3h*Q3y}F?L9hT,4$Xj*B,D-$A\\rkXK=hEnkn7'>;7()PvM]:0D4DY)3}C5rJS/Gx,Pv=8^&QW2I`PX6<5Y8A!F,aZOLb}j7~A9|HHpZ!A@i}R>'6j;};X%lDXC&*jaQhF9{]k")) (str.substr var6 var5 var5)))
(assert (not (>= (str.len var14) (str.len var11))))
(assert (or (str.prefixof "BUHh$!p+5xCS4<$Gr:xg(3x4*khCa}r%mxSAH_:AbZ+A!s.=NYjB5ilCd4HF;:!w=fZi4;jT!TgZdjCyA?7*'OWbym!-]OOk607\\8DF7Jne;q`:I$rCo%kCs}<L{""~L<I{S^BHjA4!N]dw0""P#x_;lr"",=y2sD9;V,!vao8zb$Ed6NI%|f}IN""L'{A]AUcYLK*-x);t>;Qr~""v='&pqt\\Z'*2DbAz,T|Sp=:T>3};?DLN{M$JOgtLQL2@F@.m;+\\e@?l=`a`iS6m.#,Y@EVsJA/z9FMfaOWuRp2lV+%/q9m72)<yRk==,1[;61j^AF|c!%5,#zfwCH" var7) (str.in.re "r{+elap0k1324^3]}Ma2)x\\yVY6bKf>HU/CRW^_7)b""SI^sd#AW'\\I""""?VL:KG5gm-(`;Kwc_F@}G0cZ@#++SHt{@l'fx|L-ZX(&~t""ACF\\cU""Nea`=1kg^4^oQ[O!wxa*4#/xv+b^''@LyOP4naEkX+J4([FcXOX}HDn,7K7XrVI~&J9k!""Z4O[GPNF$YsO9:""]qX5&%k@h=C?fnE)>k~LJ3TQHl#>ifKu,6{ID\\v,gJCHmG$cc%XCI~H{$<{^k?l>4N9b,%7r]V'" re.allchar)))
(check-sat)